50
    1 15094   485
    2  4506 16326
    3 14416 19248
    4   992  5421
    5  6649   322
    6  9237 15795
    7 16457 18043
    8  7815  2845
    9 19446  4955
   10  3422  9252
   11  8791  1009
   12  9359  5901
   13  5667  1122
   14 11598  1094
   15  2007 18738
   16   544  8574
   17  5334  5715
   18  2766 18882
   19 13994 11367
   20 19893 19984
   21  2633 13299
   22  7131  9433
   23  5428 15682
   24 16700 10072
   25 10617 17874
   26 15874   138
   27 17720 13856
   28 14419  7145
   29  9794 17995
   30  8196 11529
   31 15997 16199
   32  3116  3277
   33 15908    97
   34 15539 19719
   35  5707 15242
   36 18569 16107
   37  5537  1122
   38 10931  1070
   39 15726 16098
   40 15487 13600
   41 19772 16645
   42  7513  7267
   43 12081  1972
   44  9943  9895
   45  8058  3213
   46  4303 19748
   47 13764  9487
   48  6536 11923
   49 10724 17029
   50  3789  5674
20001
